NAME : Euclidean Random Tour : n = 100, sample = 16 
COMMENT : Coordinates are generated uniformly sampled from [0, 100000] x [0, 100000] 
DIMENSION : 100 
EDGE_WEIGHT_TYPE : EUC_2D 
TOUR_SECTION 
1
94
62
49
7
82
5
11
23
59
29
39
97
9
45
60
66
81
3
80
25
18
83
87
54
53
96
48
72
33
100
89
32
19
17
50
70
38
42
40
55
31
6
65
77
79
78
99
8
30
10
73
58
69
64
44
34
71
52
22
88
75
68
46
41
14
27
63
35
74
26
92
93
21
47
16
98
51
2
13
57
12
15
37
20
36
90
86
43
61
91
56
85
76
28
4
84
95
24
67
-1
